benchmarks_CP/INST_49x49/50/inst49x49_50_2.dzn
S=7;
start=[|
-1,	-1,	5,	-1,	-1,	-1,	28,	-1,	-1,	45,	17,	-1,	-1,	-1,	-1,	10,	47,	-1,	38,	2,	-1,	29,	-1,	-1,	-1,	-1,	-1,	21,	40,	-1,	-1,	-1,	46,	-1,	-1,	32,	23,	43,	-1,	-1,	-1,	34,	41,	14,	-1,	12,	49,	-1,	44|
-1,	-1,	-1,	11,	7,	3,	26,	-1,	-1,	-1,	25,	47,	6,	-1,	-1,	-1,	45,	32,	22,	-1,	42,	-1,	17,	-1,	-1,	28,	13,	-1,	1,	31,	-1,	44,	5,	41,	20,	-1,	15,	-1,	2,	37,	-1,	-1,	21,	-1,	29,	-1,	-1,	-1,	-1|
10,	-1,	-1,	-1,	27,	-1,	46,	-1,	11,	32,	22,	-1,	28,	41,	7,	-1,	-1,	-1,	-1,	34,	24,	-1,	-1,	2,	-1,	14,	-1,	-1,	-1,	-1,	-1,	43,	37,	-1,	-1,	-1,	1,	-1,	25,	38,	-1,	-1,	15,	47,	36,	-1,	8,	31,	-1|
16,	-1,	-1,	48,	-1,	-1,	13,	19,	14,	26,	49,	-1,	-1,	-1,	6,	17,	-1,	30,	-1,	-1,	43,	-1,	8,	24,	5,	-1,	23,	34,	33,	-1,	-1,	-1,	29,	9,	3,	-1,	28,	41,	18,	22,	40,	11,	46,	2,	-1,	38,	-1,	-1,	20|
-1,	38,	20,	2,	25,	36,	-1,	-1,	43,	46,	5,	-1,	29,	-1,	-1,	-1,	41,	-1,	23,	14,	12,	-1,	26,	49,	-1,	37,	-1,	-1,	27,	-1,	22,	13,	-1,	-1,	-1,	-1,	45,	-1,	24,	-1,	-1,	-1,	-1,	17,	40,	-1,	11,	-1,	32|
-1,	17,	-1,	1,	-1,	-1,	44,	-1,	-1,	-1,	-1,	-1,	2,	-1,	-1,	-1,	25,	36,	11,	-1,	48,	46,	-1,	40,	47,	-1,	41,	6,	-1,	32,	24,	39,	38,	-1,	-1,	33,	26,	-1,	-1,	-1,	8,	7,	28,	13,	-1,	-1,	-1,	-1,	-1|
45,	43,	34,	14,	41,	30,	-1,	-1,	-1,	12,	27,	23,	-1,	40,	-1,	13,	-1,	-1,	33,	-1,	39,	-1,	15,	-1,	-1,	32,	-1,	-1,	49,	6,	-1,	2,	-1,	-1,	-1,	3,	-1,	21,	-1,	31,	46,	48,	5,	24,	-1,	1,	4,	9,	-1|
1,	-1,	22,	15,	44,	18,	-1,	7,	-1,	-1,	33,	40,	39,	43,	12,	-1,	20,	-1,	17,	5,	46,	21,	10,	-1,	45,	-1,	35,	-1,	-1,	41,	-1,	34,	-1,	48,	-1,	-1,	30,	42,	38,	-1,	26,	-1,	-1,	-1,	-1,	-1,	-1,	2,	9|
9,	25,	3,	34,	-1,	-1,	-1,	-1,	23,	49,	-1,	-1,	46,	-1,	39,	44,	29,	-1,	-1,	37,	-1,	26,	-1,	48,	42,	-1,	-1,	-1,	11,	-1,	2,	7,	10,	-1,	-1,	-1,	8,	-1,	45,	4,	-1,	-1,	38,	-1,	-1,	-1,	17,	13,	5|
-1,	4,	36,	-1,	32,	-1,	-1,	10,	-1,	-1,	-1,	-1,	13,	45,	9,	8,	-1,	11,	-1,	-1,	22,	24,	-1,	-1,	23,	39,	-1,	20,	38,	-1,	-1,	-1,	6,	-1,	-1,	15,	43,	2,	19,	33,	-1,	-1,	-1,	-1,	-1,	46,	25,	-1,	42|
31,	33,	-1,	21,	17,	-1,	39,	44,	-1,	-1,	-1,	41,	-1,	-1,	-1,	42,	-1,	45,	-1,	49,	-1,	-1,	2,	46,	-1,	-1,	-1,	28,	-1,	29,	27,	-1,	25,	23,	13,	-1,	-1,	-1,	22,	-1,	-1,	-1,	26,	12,	1,	-1,	-1,	-1,	15|
41,	-1,	-1,	16,	-1,	40,	2,	32,	4,	22,	-1,	38,	25,	19,	-1,	3,	-1,	-1,	-1,	7,	-1,	-1,	9,	17,	29,	33,	-1,	44,	-1,	47,	-1,	15,	45,	-1,	-1,	13,	-1,	11,	-1,	5,	6,	28,	-1,	-1,	23,	20,	-1,	8,	-1|
42,	-1,	11,	-1,	-1,	-1,	27,	-1,	28,	-1,	2,	-1,	48,	-1,	24,	33,	13,	15,	-1,	6,	40,	41,	25,	-1,	-1,	-1,	38,	5,	-1,	-1,	14,	46,	9,	21,	22,	49,	-1,	29,	-1,	17,	-1,	-1,	30,	7,	-1,	36,	47,	-1,	-1|
24,	-1,	-1,	-1,	-1,	12,	-1,	-1,	-1,	-1,	-1,	-1,	31,	47,	-1,	-1,	-1,	-1,	16,	-1,	27,	43,	-1,	15,	30,	8,	22,	3,	-1,	-1,	-1,	33,	39,	-1,	28,	-1,	35,	46,	-1,	40,	-1,	-1,	-1,	-1,	-1,	-1,	18,	-1,	-1|
-1,	-1,	-1,	-1,	-1,	45,	4,	-1,	-1,	17,	-1,	-1,	32,	-1,	-1,	-1,	14,	-1,	-1,	23,	-1,	19,	-1,	1,	15,	-1,	48,	31,	-1,	24,	25,	-1,	-1,	34,	-1,	-1,	-1,	-1,	47,	28,	-1,	9,	-1,	-1,	-1,	-1,	-1,	-1,	40|
47,	3,	13,	24,	-1,	20,	36,	2,	-1,	9,	-1,	45,	16,	-1,	-1,	31,	6,	41,	19,	4,	29,	40,	-1,	-1,	10,	-1,	-1,	17,	-1,	-1,	37,	1,	33,	5,	-1,	8,	18,	-1,	-1,	-1,	-1,	39,	-1,	11,	-1,	-1,	7,	28,	26|
-1,	-1,	2,	27,	-1,	-1,	-1,	28,	19,	4,	-1,	6,	3,	-1,	-1,	1,	-1,	-1,	21,	-1,	11,	-1,	-1,	37,	-1,	-1,	44,	-1,	-1,	-1,	20,	-1,	-1,	31,	-1,	25,	-1,	-1,	-1,	-1,	34,	-1,	24,	-1,	41,	15,	29,	-1,	-1|
49,	-1,	-1,	33,	46,	29,	-1,	36,	-1,	-1,	34,	5,	-1,	25,	-1,	-1,	-1,	-1,	12,	26,	-1,	8,	-1,	-1,	-1,	-1,	-1,	-1,	-1,	13,	-1,	4,	-1,	-1,	44,	21,	31,	35,	-1,	-1,	-1,	23,	-1,	-1,	32,	48,	-1,	19,	-1|
21,	-1,	8,	41,	-1,	-1,	-1,	-1,	26,	24,	-1,	22,	-1,	-1,	-1,	-1,	-1,	25,	-1,	-1,	9,	28,	33,	5,	-1,	-1,	39,	-1,	36,	23,	29,	-1,	-1,	6,	11,	-1,	17,	-1,	48,	13,	12,	-1,	14,	-1,	34,	31,	1,	-1,	-1|
-1,	-1,	-1,	19,	-1,	-1,	-1,	-1,	27,	31,	40,	-1,	-1,	13,	48,	-1,	-1,	-1,	39,	-1,	3,	11,	-1,	-1,	-1,	6,	9,	-1,	2,	10,	26,	18,	-1,	43,	-1,	5,	-1,	-1,	-1,	46,	-1,	33,	45,	4,	21,	8,	12,	17,	47|
6,	-1,	-1,	31,	-1,	-1,	-1,	20,	-1,	-1,	-1,	10,	14,	-1,	-1,	-1,	-1,	-1,	15,	-1,	28,	-1,	4,	-1,	-1,	46,	26,	43,	-1,	-1,	32,	9,	27,	8,	39,	24,	49,	-1,	-1,	-1,	-1,	37,	-1,	-1,	44,	-1,	-1,	-1,	-1|
48,	30,	12,	26,	-1,	39,	34,	-1,	-1,	-1,	-1,	3,	-1,	-1,	32,	-1,	-1,	20,	46,	42,	6,	-1,	13,	28,	17,	38,	-1,	33,	-1,	-1,	44,	-1,	-1,	-1,	-1,	19,	-1,	31,	-1,	-1,	-1,	-1,	-1,	-1,	11,	27,	24,	35,	8|
18,	37,	-1,	44,	-1,	21,	-1,	9,	-1,	-1,	4,	27,	38,	24,	-1,	29,	15,	-1,	2,	12,	14,	-1,	41,	3,	-1,	5,	19,	-1,	-1,	49,	43,	-1,	-1,	22,	34,	35,	47,	13,	39,	-1,	-1,	-1,	-1,	32,	-1,	-1,	16,	-1,	25|
27,	-1,	41,	9,	33,	-1,	3,	-1,	32,	-1,	28,	-1,	-1,	23,	-1,	11,	-1,	-1,	37,	-1,	-1,	47,	42,	45,	-1,	-1,	40,	22,	-1,	-1,	13,	-1,	-1,	-1,	7,	-1,	-1,	-1,	6,	-1,	-1,	-1,	-1,	1,	-1,	-1,	26,	36,	-1|
-1,	-1,	-1,	-1,	29,	13,	11,	-1,	45,	10,	1,	31,	41,	-1,	30,	25,	3,	38,	47,	8,	21,	36,	18,	-1,	-1,	-1,	27,	35,	-1,	-1,	-1,	24,	12,	-1,	-1,	37,	-1,	15,	-1,	14,	32,	-1,	40,	22,	-1,	-1,	28,	-1,	39|
-1,	8,	-1,	-1,	49,	-1,	-1,	11,	-1,	21,	-1,	-1,	18,	34,	-1,	-1,	-1,	33,	-1,	45,	-1,	-1,	-1,	7,	44,	-1,	15,	37,	9,	-1,	39,	10,	16,	-1,	47,	17,	-1,	27,	43,	-1,	41,	-1,	48,	-1,	13,	-1,	31,	-1,	-1|
-1,	-1,	24,	45,	2,	-1,	16,	-1,	-1,	39,	-1,	-1,	19,	12,	28,	22,	-1,	49,	-1,	-1,	-1,	-1,	43,	21,	-1,	-1,	8,	-1,	-1,	26,	18,	-1,	-1,	27,	4,	20,	-1,	34,	40,	-1,	11,	-1,	23,	-1,	42,	-1,	-1,	15,	37|
-1,	36,	47,	22,	-1,	1,	-1,	-1,	-1,	-1,	26,	-1,	-1,	16,	-1,	7,	-1,	27,	10,	17,	35,	-1,	6,	23,	4,	31,	-1,	39,	15,	28,	11,	-1,	42,	-1,	33,	-1,	9,	-1,	-1,	24,	-1,	25,	-1,	-1,	38,	21,	-1,	12,	49|
-1,	31,	-1,	-1,	-1,	-1,	-1,	-1,	15,	40,	-1,	35,	-1,	28,	-1,	23,	-1,	-1,	7,	11,	-1,	-1,	-1,	-1,	-1,	10,	42,	-1,	47,	-1,	-1,	14,	18,	-1,	43,	2,	-1,	37,	-1,	41,	29,	13,	-1,	-1,	-1,	-1,	20,	24,	17|
20,	-1,	-1,	-1,	1,	-1,	-1,	-1,	-1,	-1,	13,	19,	22,	-1,	-1,	-1,	-1,	28,	-1,	-1,	-1,	2,	5,	18,	-1,	-1,	11,	26,	21,	45,	34,	-1,	-1,	-1,	36,	44,	-1,	7,	-1,	-1,	-1,	12,	16,	33,	35,	37,	43,	29,	46|
12,	-1,	-1,	8,	11,	16,	-1,	-1,	-1,	-1,	-1,	43,	20,	-1,	36,	-1,	32,	42,	-1,	13,	38,	-1,	-1,	33,	-1,	-1,	-1,	-1,	-1,	-1,	23,	35,	-1,	44,	29,	26,	21,	19,	-1,	39,	24,	5,	4,	18,	10,	49,	-1,	22,	-1|
-1,	34,	15,	32,	26,	22,	38,	-1,	-1,	29,	46,	-1,	-1,	33,	5,	24,	44,	10,	-1,	-1,	1,	-1,	31,	25,	37,	4,	6,	12,	13,	-1,	-1,	16,	30,	39,	40,	42,	14,	-1,	17,	-1,	23,	18,	-1,	-1,	7,	45,	-1,	-1,	-1|
-1,	19,	-1,	46,	24,	37,	-1,	48,	7,	42,	-1,	-1,	-1,	5,	33,	-1,	-1,	-1,	18,	-1,	-1,	23,	-1,	-1,	-1,	-1,	-1,	41,	10,	25,	28,	31,	4,	2,	-1,	47,	-1,	-1,	35,	-1,	22,	36,	3,	26,	-1,	-1,	-1,	-1,	-1|
-1,	13,	-1,	-1,	-1,	7,	-1,	17,	9,	30,	47,	-1,	26,	-1,	35,	-1,	2,	-1,	-1,	41,	-1,	48,	28,	-1,	-1,	29,	43,	24,	46,	5,	-1,	-1,	-1,	-1,	-1,	-1,	-1,	25,	49,	-1,	45,	-1,	27,	31,	-1,	-1,	14,	-1,	-1|
4,	-1,	-1,	-1,	18,	49,	40,	-1,	-1,	-1,	10,	36,	24,	-1,	34,	-1,	21,	-1,	-1,	29,	-1,	-1,	-1,	-1,	-1,	-1,	45,	46,	7,	20,	-1,	26,	-1,	-1,	27,	43,	-1,	6,	30,	-1,	33,	3,	-1,	-1,	28,	-1,	15,	25,	-1|
23,	41,	-1,	-1,	-1,	11,	-1,	-1,	22,	-1,	35,	-1,	-1,	-1,	13,	-1,	9,	29,	49,	-1,	-1,	-1,	-1,	-1,	-1,	-1,	-1,	14,	12,	15,	40,	-1,	2,	1,	19,	-1,	46,	30,	16,	-1,	31,	8,	42,	-1,	-1,	-1,	27,	-1,	-1|
29,	15,	32,	12,	-1,	-1,	-1,	-1,	2,	-1,	-1,	-1,	23,	6,	38,	40,	-1,	21,	-1,	31,	16,	3,	-1,	-1,	26,	-1,	-1,	-1,	-1,	-1,	-1,	-1,	43,	-1,	-1,	45,	-1,	33,	-1,	44,	17,	1,	-1,	-1,	-1,	13,	-1,	-1,	-1|
40,	-1,	-1,	13,	-1,	44,	-1,	-1,	1,	11,	-1,	-1,	33,	26,	-1,	48,	42,	-1,	-1,	27,	2,	-1,	23,	-1,	21,	22,	-1,	-1,	41,	-1,	49,	-1,	-1,	-1,	45,	-1,	6,	-1,	20,	12,	5,	-1,	36,	-1,	18,	14,	38,	-1,	10|
46,	1,	18,	-1,	43,	-1,	24,	-1,	10,	47,	-1,	-1,	27,	-1,	3,	41,	30,	-1,	-1,	-1,	-1,	-1,	-1,	-1,	-1,	-1,	12,	40,	-1,	-1,	31,	-1,	36,	-1,	37,	-1,	-1,	26,	15,	-1,	13,	2,	33,	-1,	-1,	-1,	-1,	-1,	-1|
34,	10,	-1,	-1,	-1,	-1,	20,	15,	-1,	43,	32,	-1,	30,	-1,	-1,	-1,	11,	7,	8,	36,	-1,	-1,	47,	39,	-1,	41,	1,	-1,	44,	33,	-1,	23,	26,	-1,	5,	-1,	-1,	-1,	29,	21,	-1,	4,	-1,	28,	-1,	24,	-1,	6,	-1|
-1,	22,	31,	-1,	8,	47,	-1,	42,	34,	-1,	-1,	13,	12,	20,	37,	-1,	-1,	-1,	-1,	24,	-1,	33,	45,	-1,	28,	-1,	-1,	9,	25,	-1,	7,	3,	21,	4,	32,	-1,	19,	-1,	10,	-1,	48,	-1,	29,	-1,	-1,	40,	-1,	11,	43|
33,	-1,	37,	-1,	45,	-1,	-1,	29,	-1,	5,	3,	24,	-1,	-1,	44,	47,	-1,	6,	-1,	15,	-1,	7,	-1,	13,	-1,	-1,	49,	-1,	17,	14,	30,	-1,	-1,	10,	38,	41,	-1,	39,	23,	-1,	35,	40,	22,	-1,	-1,	-1,	-1,	-1,	1|
3,	49,	-1,	-1,	31,	-1,	33,	-1,	29,	19,	43,	12,	-1,	-1,	-1,	21,	40,	-1,	-1,	25,	-1,	5,	-1,	47,	20,	26,	10,	45,	34,	-1,	35,	28,	44,	7,	-1,	11,	22,	8,	41,	-1,	4,	-1,	-1,	-1,	-1,	6,	2,	-1,	-1|
2,	-1,	-1,	7,	-1,	-1,	8,	-1,	-1,	-1,	-1,	32,	47,	-1,	26,	27,	33,	-1,	5,	-1,	-1,	-1,	-1,	38,	-1,	-1,	-1,	29,	-1,	-1,	21,	-1,	-1,	-1,	-1,	-1,	20,	10,	-1,	30,	-1,	24,	-1,	35,	48,	-1,	45,	-1,	28|
-1,	14,	40,	-1,	34,	-1,	-1,	27,	-1,	15,	24,	28,	49,	-1,	-1,	6,	-1,	13,	-1,	46,	41,	1,	-1,	-1,	-1,	-1,	-1,	-1,	-1,	-1,	-1,	-1,	-1,	-1,	25,	18,	37,	32,	-1,	47,	-1,	35,	12,	5,	20,	-1,	23,	-1,	11|
-1,	-1,	-1,	29,	22,	-1,	-1,	46,	-1,	-1,	23,	11,	-1,	-1,	-1,	19,	49,	34,	43,	-1,	-1,	12,	-1,	-1,	-1,	-1,	-1,	36,	-1,	-1,	-1,	32,	-1,	-1,	9,	-1,	38,	-1,	-1,	-1,	25,	15,	7,	-1,	-1,	-1,	-1,	40,	14|
-1,	27,	6,	20,	-1,	38,	-1,	26,	-1,	33,	-1,	-1,	10,	-1,	-1,	-1,	24,	-1,	-1,	22,	7,	-1,	48,	30,	-1,	-1,	-1,	-1,	-1,	-1,	12,	-1,	-1,	-1,	-1,	-1,	-1,	23,	-1,	45,	-1,	-1,	-1,	-1,	49,	17,	-1,	-1,	-1|
-1,	-1,	-1,	28,	-1,	9,	1,	-1,	25,	-1,	-1,	-1,	35,	-1,	11,	-1,	18,	-1,	32,	20,	37,	13,	21,	-1,	49,	-1,	14,	15,	-1,	-1,	-1,	-1,	41,	-1,	2,	16,	-1,	5,	36,	-1,	39,	-1,	-1,	-1,	-1,	33,	22,	46,	-1|
15,	42,	-1,	-1,	-1,	43,	-1,	41,	8,	16,	48,	20,	-1,	-1,	45,	12,	35,	-1,	-1,	28,	44,	-1,	46,	-1,	6,	3,	-1,	23,	-1,	-1,	17,	-1,	13,	11,	30,	-1,	34,	1,	-1,	-1,	21,	-1,	31,	-1,	4,	-1,	-1,	18,	24|];
