sudoku-ls/benchmarks_LEQ/INST_49x49/50/inst49x49_50_2.txt
7
1
-1	-1	-1	42	6	33	28	1	-1	45	-1	-1	4	35	31	-1	47	-1	38	-1	20	-1	-1	9	22	-1	18	21	40	-1	-1	-1	46	-1	15	-1	23	-1	-1	16	27	34	41	14	37	12	49	-1	44
-1	40	-1	-1	-1	-1	-1	-1	-1	48	-1	-1	-1	10	4	46	45	32	-1	-1	-1	38	-1	-1	-1	-1	-1	19	1	-1	8	-1	5	41	-1	36	15	14	-1	-1	49	30	-1	34	-1	23	-1	-1	16
10	12	-1	23	-1	35	-1	-1	11	32	-1	21	-1	41	-1	-1	-1	19	40	34	-1	45	-1	2	-1	14	-1	-1	4	16	-1	43	-1	18	26	-1	1	17	25	-1	-1	-1	15	-1	-1	-1	-1	-1	-1
-1	32	-1	-1	-1	-1	13	-1	14	-1	49	-1	-1	31	-1	-1	-1	30	27	-1	43	-1	8	-1	-1	-1	23	-1	33	-1	-1	-1	-1	-1	3	39	-1	-1	18	22	-1	-1	46	-1	-1	-1	35	-1	-1
-1	-1	-1	2	25	36	18	33	-1	-1	5	15	-1	-1	-1	-1	41	3	-1	14	12	-1	-1	-1	-1	-1	31	-1	27	34	22	-1	35	42	-1	-1	45	47	24	9	44	19	-1	17	40	39	-1	48	-1
22	-1	-1	-1	4	31	-1	-1	-1	3	20	37	2	-1	15	-1	-1	36	-1	21	-1	-1	30	40	47	-1	-1	-1	-1	-1	-1	39	38	14	-1	-1	-1	12	-1	-1	8	7	28	-1	45	-1	-1	27	19
45	-1	34	-1	41	30	37	-1	-1	-1	-1	-1	-1	40	-1	13	-1	44	33	18	-1	16	15	-1	-1	32	-1	25	-1	-1	-1	2	19	28	-1	3	-1	-1	-1	31	46	-1	-1	24	-1	1	4	-1	7
-1	-1	-1	15	-1	18	49	7	37	-1	-1	-1	39	-1	-1	36	20	-1	-1	5	-1	21	-1	14	-1	-1	-1	13	8	-1	19	34	3	48	16	-1	-1	-1	-1	-1	26	31	-1	-1	24	-1	32	2	-1
-1	-1	-1	-1	-1	6	-1	24	23	49	21	30	46	15	-1	-1	29	18	-1	37	19	-1	1	48	42	-1	16	32	-1	36	-1	-1	10	-1	-1	27	-1	20	45	-1	47	41	-1	-1	-1	-1	17	-1	5
-1	4	36	35	32	26	-1	10	-1	18	-1	-1	-1	-1	-1	8	-1	11	-1	-1	22	-1	-1	31	-1	-1	7	-1	38	-1	-1	40	6	-1	-1	-1	-1	-1	-1	-1	-1	21	44	3	-1	-1	25	14	42
31	33	-1	-1	17	8	39	44	-1	35	16	-1	9	-1	-1	42	-1	-1	30	-1	-1	-1	2	-1	11	-1	36	-1	-1	-1	-1	-1	25	23	-1	-1	-1	-1	22	-1	14	-1	26	12	1	-1	10	-1	-1
-1	-1	-1	16	30	-1	2	32	4	-1	-1	38	25	19	21	3	-1	1	31	7	-1	37	-1	17	-1	-1	34	-1	24	-1	42	15	-1	-1	18	13	39	-1	12	-1	-1	28	35	49	-1	20	-1	-1	-1
-1	23	11	-1	20	-1	27	-1	28	-1	2	26	48	-1	24	33	-1	-1	-1	6	-1	41	-1	4	18	-1	-1	5	-1	-1	14	-1	9	-1	-1	-1	44	-1	-1	17	-1	16	30	-1	39	-1	-1	45	-1
24	-1	-1	-1	-1	12	7	14	20	6	-1	42	31	47	-1	-1	-1	-1	16	32	27	-1	49	-1	30	8	22	3	-1	-1	-1	33	-1	-1	28	-1	-1	46	1	40	36	-1	-1	29	19	41	18	-1	34
44	-1	39	43	-1	-1	-1	-1	-1	17	38	33	32	11	-1	18	14	37	-1	23	-1	-1	22	1	-1	21	-1	31	16	-1	-1	30	7	34	-1	-1	-1	-1	-1	-1	-1	-1	-1	27	46	3	-1	-1	40
-1	-1	-1	-1	48	-1	-1	-1	21	9	15	45	-1	44	-1	-1	-1	-1	-1	-1	29	-1	32	-1	-1	23	-1	17	14	12	37	1	-1	-1	46	8	18	22	27	-1	-1	39	25	-1	-1	35	7	-1	26
-1	9	-1	-1	14	23	-1	-1	-1	-1	-1	6	-1	39	-1	1	36	5	21	-1	-1	18	-1	37	12	-1	-1	49	-1	42	20	-1	47	-1	-1	-1	32	40	7	26	-1	-1	24	-1	41	-1	-1	16	-1
-1	11	16	33	46	-1	22	36	42	37	34	-1	7	25	10	43	17	-1	12	26	30	8	14	-1	24	45	47	27	28	13	15	4	-1	-1	-1	21	31	35	-1	6	1	23	-1	-1	-1	48	39	19	-1
21	7	8	-1	-1	32	15	47	-1	-1	-1	22	43	46	40	-1	-1	-1	-1	44	9	28	-1	5	3	-1	-1	16	36	-1	-1	19	-1	-1	-1	-1	-1	-1	-1	13	12	-1	14	10	-1	-1	-1	-1	38
-1	-1	25	-1	42	-1	-1	23	-1	31	-1	49	-1	-1	48	-1	-1	-1	39	38	3	11	-1	20	36	-1	9	-1	-1	10	-1	-1	22	-1	-1	5	-1	-1	14	-1	15	33	45	-1	-1	8	12	17	-1
-1	18	1	31	40	17	-1	-1	48	-1	30	10	-1	29	22	-1	7	-1	-1	47	-1	25	-1	-1	38	-1	26	43	3	21	-1	-1	27	8	-1	24	-1	45	11	19	16	-1	13	36	44	-1	5	23	-1
48	-1	-1	-1	-1	-1	-1	-1	47	25	-1	3	-1	-1	32	16	4	20	46	42	6	9	-1	-1	17	-1	2	-1	29	37	44	-1	-1	-1	-1	-1	5	-1	-1	-1	-1	-1	-1	43	11	27	-1	-1	-1
-1	37	42	44	-1	-1	31	9	36	-1	4	-1	38	-1	-1	29	15	-1	-1	-1	14	-1	-1	3	46	-1	19	11	30	-1	-1	-1	-1	22	-1	-1	-1	-1	-1	-1	-1	26	-1	-1	6	-1	-1	33	-1
-1	35	41	-1	-1	46	3	30	-1	-1	28	-1	-1	23	18	11	48	-1	-1	-1	5	-1	42	45	-1	24	-1	-1	-1	-1	13	-1	-1	-1	7	-1	-1	-1	-1	49	10	-1	2	1	14	19	-1	36	-1
7	20	23	17	29	-1	-1	-1	45	-1	1	-1	41	-1	-1	25	-1	38	47	-1	21	36	-1	26	-1	-1	-1	35	19	2	5	-1	12	-1	-1	37	33	15	-1	-1	32	42	-1	22	-1	34	28	44	-1
-1	8	38	40	49	-1	-1	11	35	-1	42	46	-1	-1	1	-1	19	-1	-1	-1	-1	14	-1	-1	-1	25	-1	-1	-1	-1	-1	-1	16	-1	47	17	2	27	43	-1	-1	22	-1	-1	-1	29	31	-1	-1
-1	5	-1	-1	2	25	16	-1	-1	39	-1	17	19	-1	28	22	-1	-1	44	9	13	30	43	-1	-1	1	-1	-1	-1	26	18	-1	-1	27	4	-1	-1	34	-1	-1	-1	-1	-1	-1	42	47	3	15	-1
43	-1	-1	-1	19	1	14	-1	-1	13	-1	2	-1	16	41	7	34	27	10	-1	35	32	-1	-1	-1	31	-1	-1	-1	-1	-1	-1	42	40	33	-1	-1	3	8	-1	30	25	-1	45	38	21	-1	12	49
25	-1	-1	-1	-1	-1	45	-1	15	40	12	-1	34	28	19	23	46	-1	7	-1	26	49	-1	-1	1	10	-1	-1	47	9	-1	14	18	33	-1	2	-1	37	-1	-1	-1	-1	39	-1	8	-1	-1	-1	17
-1	-1	17	39	1	-1	-1	-1	6	38	-1	-1	22	32	-1	14	8	28	-1	3	-1	-1	5	18	40	-1	-1	-1	21	-1	-1	42	-1	15	-1	44	-1	7	31	-1	-1	12	-1	-1	-1	37	-1	-1	-1
-1	6	-1	8	-1	-1	-1	-1	31	-1	37	-1	-1	27	-1	30	-1	-1	-1	-1	-1	-1	-1	33	14	7	-1	47	-1	-1	-1	-1	17	-1	-1	-1	21	19	46	-1	-1	-1	-1	18	-1	-1	-1	-1	41
-1	-1	-1	32	-1	-1	-1	3	49	-1	46	-1	-1	33	-1	-1	-1	-1	-1	43	-1	27	31	-1	37	4	-1	-1	13	19	-1	-1	-1	39	-1	42	14	-1	17	20	23	18	-1	21	7	-1	-1	-1	2
14	19	-1	-1	-1	37	29	-1	7	-1	45	-1	-1	-1	-1	15	39	-1	-1	40	-1	-1	20	8	32	-1	21	-1	10	-1	28	-1	-1	-1	-1	-1	-1	-1	35	-1	-1	36	-1	26	-1	11	-1	-1	-1
-1	13	-1	-1	21	7	-1	17	9	30	-1	-1	-1	-1	35	-1	-1	-1	6	-1	-1	-1	28	44	19	29	43	24	46	5	-1	-1	-1	-1	8	-1	40	25	-1	-1	45	-1	-1	-1	-1	-1	14	-1	-1
-1	-1	44	5	-1	-1	40	16	-1	23	10	36	24	-1	-1	-1	-1	31	9	29	-1	22	39	35	-1	17	-1	-1	7	-1	-1	26	32	-1	-1	43	11	6	30	8	-1	3	1	-1	-1	42	-1	-1	-1
-1	-1	-1	3	-1	11	-1	38	22	7	35	18	-1	-1	13	-1	-1	29	49	10	-1	44	36	6	43	34	-1	14	12	-1	40	47	-1	-1	-1	28	46	30	-1	-1	-1	-1	42	25	17	-1	-1	20	45
29	15	-1	12	-1	14	5	49	2	28	-1	-1	-1	-1	-1	40	-1	21	34	-1	16	-1	19	-1	-1	27	-1	4	42	18	-1	-1	43	20	24	-1	-1	-1	-1	44	-1	-1	8	39	47	-1	-1	7	-1
40	16	-1	13	9	-1	35	-1	1	-1	-1	25	33	26	-1	48	42	-1	-1	-1	2	-1	-1	-1	-1	22	-1	30	41	-1	-1	8	-1	29	45	34	-1	-1	-1	-1	-1	47	-1	15	18	-1	-1	3	10
-1	-1	18	25	-1	42	-1	45	-1	-1	-1	-1	-1	4	3	-1	-1	17	-1	19	-1	-1	-1	-1	8	20	-1	40	-1	22	-1	48	-1	-1	37	14	7	-1	15	11	-1	2	-1	23	5	-1	34	49	-1
-1	10	27	49	38	-1	20	15	-1	43	-1	16	30	17	14	35	-1	-1	8	-1	45	-1	-1	-1	-1	41	-1	48	-1	-1	46	23	26	13	-1	22	-1	9	-1	21	-1	-1	-1	28	31	24	-1	6	12
30	22	31	6	-1	-1	17	-1	34	14	-1	-1	12	-1	37	39	1	23	-1	-1	18	33	45	16	28	-1	-1	-1	-1	-1	7	3	21	4	32	38	19	49	-1	36	48	27	29	46	-1	-1	41	-1	43
-1	21	37	4	-1	28	-1	29	-1	5	-1	-1	-1	36	-1	47	12	6	-1	-1	-1	-1	11	-1	-1	18	49	-1	17	14	-1	-1	34	-1	-1	-1	-1	39	-1	43	35	40	22	48	26	-1	-1	32	-1
-1	-1	-1	-1	31	-1	33	-1	29	-1	43	-1	-1	-1	-1	-1	40	-1	36	-1	-1	5	37	47	20	26	-1	45	-1	48	35	-1	44	-1	-1	-1	22	8	-1	27	-1	14	32	-1	-1	6	-1	-1	13
2	44	4	-1	-1	-1	8	-1	13	36	-1	-1	-1	22	26	27	-1	39	-1	-1	-1	34	-1	38	-1	11	-1	29	18	46	21	-1	-1	-1	14	31	20	10	-1	-1	42	-1	43	-1	48	25	-1	-1	28
-1	-1	40	36	-1	-1	21	-1	30	-1	24	28	49	-1	2	6	10	-1	-1	46	41	-1	-1	43	9	16	4	8	22	38	33	29	31	-1	25	18	37	32	44	47	-1	-1	12	-1	-1	-1	23	39	-1
-1	39	-1	29	22	-1	-1	-1	18	44	23	11	-1	1	17	19	-1	34	-1	30	31	12	-1	27	-1	-1	28	-1	-1	4	16	-1	20	47	9	-1	-1	-1	-1	2	25	-1	7	-1	3	10	-1	-1	-1
11	27	-1	20	-1	38	-1	26	-1	-1	-1	-1	10	21	8	-1	-1	-1	-1	22	-1	-1	-1	-1	2	-1	-1	18	-1	-1	12	5	15	-1	42	46	-1	-1	28	-1	43	29	-1	-1	49	17	44	-1	-1
-1	45	30	28	23	9	1	40	25	34	31	4	-1	-1	-1	38	-1	-1	32	-1	-1	13	-1	-1	49	-1	14	15	43	-1	-1	-1	-1	24	2	16	12	-1	36	3	-1	17	47	-1	-1	-1	22	-1	29
-1	42	10	-1	37	-1	32	-1	-1	16	48	20	-1	-1	-1	12	35	14	-1	28	-1	39	-1	22	-1	3	-1	-1	26	-1	17	36	13	-1	30	-1	34	1	-1	7	21	49	31	38	-1	9	19	18	-1
49 
23 40 31 30
18 18 14 16
18 39 26 30
16 20 15 7
12 40 26 48
25 35 20 26
26 24 42 22
3 47 9 37
31 7 14 36
5 22 26 32
4 42 43 36
35 34 33 18
46 1 23 38
9 19 45 2
46 42 31 22
24 37 33 38
24 30 1 11
18 49 35 5
20 4 42 7
45 45 21 8
46 47 20 45
33 41 28 4
26 40 47 38
22 47 38 38
1 32 40 25
45 46 28 11
8 10 25 27
43 32 38 33
6 3 17 47
42 31 17 44
3 48 17 34
6 30 29 39
6 36 44 17
16 24 23 35
13 19 37 49
4 26 47 49
14 43 4 17
42 35 32 7
21 35 47 29
16 22 4 41
32 31 16 18
21 24 19 19
2 48 33 3
38 6 33 13
23 32 35 27
28 47 10 46
28 3 8 26
1 26 29 3
34 39 33 35
